\ENCODING=ISO-8859-1
\Problem name: ilog.cplex

Maximize
 obj: 793 x(0)#0 + 756 x(1)#1 + 923 x(2)#2 + 915 x(3)#3 + 833 x(4)#4
      + 667 x(5)#5 + 701 x(6)#6 + 700 x(7)#7 + 311 x(8)#8 + 891 x(9)#9
      + 790 x(10)#10 + 835 x(11)#11 + 569 x(12)#12 + 795 x(13)#13
      + 860 x(14)#14 + 1091 x(15)#15 + 368 x(16)#16 + 817 x(17)#17
      + 961 x(18)#18 + 711 x(19)#19 + 801 x(20)#20 + 859 x(21)#21
      + 567 x(22)#22 + 939 x(23)#23 + 950 x(24)#24 + 1049 x(25)#25
      + 791 x(26)#26 + 762 x(27)#27 + 491 x(28)#28 + 753 x(29)#29
      + 835 x(30)#30 + 368 x(31)#31 + 882 x(32)#32 + 830 x(33)#33
      + 809 x(34)#34 + 885 x(35)#35 + 955 x(36)#36 + 772 x(37)#37
      + 909 x(38)#38 + 458 x(39)#39 + 847 x(40)#40 + 351 x(41)#41
      + 748 x(42)#42 + 675 x(43)#43 + 509 x(44)#44 + 990 x(45)#45
      + 489 x(46)#46 + 491 x(47)#47 + 706 x(48)#48 + 796 x(49)#49
      + 785 x(50)#50 + 686 x(51)#51 + 634 x(52)#52 + 932 x(53)#53
      + 555 x(54)#54 + 949 x(55)#55 + 926 x(56)#56 + 932 x(57)#57
      + 719 x(58)#58 + 534 x(59)#59 + 544 x(60)#60 + 999 x(61)#61
      + 729 x(62)#62 + 565 x(63)#63 + 1073 x(64)#64 + 639 x(65)#65
      + 722 x(66)#66 + 641 x(67)#67 + 527 x(68)#68 + 655 x(69)#69
      + 868 x(70)#70 + 786 x(71)#71 + 558 x(72)#72 + 760 x(73)#73
      + 845 x(74)#74 + 663 x(75)#75 + 1047 x(76)#76 + 659 x(77)#77
      + 623 x(78)#78 + 723 x(79)#79 + 726 x(80)#80 + 570 x(81)#81
      + 510 x(82)#82 + 666 x(83)#83 + 824 x(84)#84 + 498 x(85)#85
      + 738 x(86)#86 + 663 x(87)#87 + 756 x(88)#88 + 653 x(89)#89
      + 443 x(90)#90 + 983 x(91)#91 + 858 x(92)#92 + 529 x(93)#93
      + 487 x(94)#94 + 614 x(95)#95 + 593 x(96)#96 + 862 x(97)#97
      + 610 x(98)#98 + 672 x(99)#99
Subject To
 c1:  292 x(0)#0 + 819 x(1)#1 + 468 x(2)#2 + 428 x(3)#3 + 992 x(4)#4
      + 241 x(5)#5 + 417 x(6)#6 + 939 x(7)#7 + 44 x(8)#8 + 447 x(9)#9
      + 546 x(10)#10 + 134 x(11)#11 + 639 x(12)#12 + 806 x(13)#13
      + 150 x(14)#14 + 962 x(15)#15 + 229 x(16)#16 + 273 x(17)#17
      + 457 x(18)#18 + 552 x(19)#19 + 189 x(20)#20 + 38 x(21)#21 + 277 x(22)#22
      + 987 x(23)#23 + 390 x(24)#24 + 978 x(25)#25 + 734 x(26)#26
      + 807 x(27)#27 + 261 x(28)#28 + 833 x(29)#29 + 584 x(30)#30
      + 162 x(31)#31 + 440 x(32)#32 + 64 x(33)#33 + 697 x(34)#34 + 724 x(35)#35
      + 495 x(36)#36 + 323 x(37)#37 + 718 x(38)#38 + 654 x(39)#39
      + 184 x(40)#40 + 5 x(41)#41 + 182 x(42)#42 + 292 x(43)#43 + 207 x(44)#44
      + 370 x(45)#45 + 592 x(46)#46 + 145 x(47)#47 + 735 x(48)#48 + 86 x(49)#49
      + 542 x(50)#50 + 31 x(51)#51 + 956 x(52)#52 + 204 x(53)#53 + 87 x(54)#54
      + 844 x(55)#55 + 684 x(56)#56 + 63 x(57)#57 + 485 x(58)#58 + 499 x(59)#59
      + 80 x(60)#60 + 720 x(61)#61 + 243 x(62)#62 + 319 x(63)#63 + 782 x(64)#64
      + 571 x(65)#65 + 972 x(66)#66 + 72 x(67)#67 + 612 x(68)#68 + 458 x(69)#69
      + 395 x(70)#70 + 19 x(71)#71 + 764 x(72)#72 + 902 x(73)#73 + 6 x(74)#74
      + 187 x(75)#75 + 779 x(76)#76 + 178 x(77)#77 + 714 x(78)#78
      + 450 x(79)#79 + 768 x(80)#80 + 454 x(81)#81 + 37 x(82)#82 + 934 x(83)#83
      + 796 x(84)#84 + 572 x(85)#85 + 909 x(86)#86 + 803 x(87)#87
      + 885 x(88)#88 + 235 x(89)#89 + 556 x(90)#90 + 172 x(91)#91
      + 714 x(92)#92 + 327 x(93)#93 + 816 x(94)#94 + 106 x(95)#95 + 79 x(96)#96
      + 45 x(97)#97 + 148 x(98)#98 + 864 x(99)#99 <= 11707
 c2:  414 x(0)#0 + 271 x(1)#1 + 673 x(2)#2 + 955 x(3)#3 + 697 x(4)#4
      + 869 x(5)#5 + 290 x(6)#6 + 765 x(7)#7 + 634 x(8)#8 + 781 x(9)#9
      + 514 x(10)#10 + 252 x(11)#11 + 662 x(12)#12 + 704 x(13)#13
      + 205 x(14)#14 + 869 x(15)#15 + 469 x(16)#16 + 501 x(17)#17
      + 793 x(18)#18 + 738 x(19)#19 + 403 x(20)#20 + 305 x(21)#21
      + 619 x(22)#22 + 604 x(23)#23 + 676 x(24)#24 + 789 x(25)#25
      + 977 x(26)#26 + x(27)#27 + 777 x(28)#28 + 973 x(29)#29 + 43 x(30)#30
      + 388 x(31)#31 + 813 x(32)#32 + 554 x(33)#33 + 424 x(34)#34
      + 823 x(35)#35 + 814 x(36)#36 + 951 x(37)#37 + 337 x(38)#38
      + 864 x(39)#39 + 588 x(40)#40 + 668 x(41)#41 + 104 x(42)#42
      + 135 x(43)#43 + 515 x(44)#44 + 484 x(45)#45 + 183 x(46)#46
      + 731 x(47)#47 + 272 x(48)#48 + 983 x(49)#49 + 129 x(50)#50
      + 496 x(51)#51 + 333 x(52)#52 + 791 x(53)#53 + 841 x(54)#54
      + 393 x(55)#55 + 85 x(56)#56 + 946 x(57)#57 + 812 x(58)#58 + 925 x(59)#59
      + 318 x(60)#60 + 396 x(61)#61 + 967 x(62)#62 + 987 x(63)#63
      + 793 x(64)#64 + 266 x(65)#65 + 631 x(66)#66 + 493 x(67)#67
      + 707 x(68)#68 + 982 x(69)#69 + 949 x(70)#70 + 382 x(71)#71
      + 297 x(72)#72 + 30 x(73)#73 + 14 x(74)#74 + 658 x(75)#75 + 806 x(76)#76
      + 763 x(77)#77 + 763 x(78)#78 + 850 x(79)#79 + 340 x(80)#80
      + 178 x(81)#81 + 30 x(82)#82 + 204 x(83)#83 + 155 x(84)#84 + 69 x(85)#85
      + 655 x(86)#86 + 269 x(87)#87 + 133 x(88)#88 + 807 x(89)#89
      + 217 x(90)#90 + 846 x(91)#91 + 525 x(92)#92 + 673 x(93)#93 + 32 x(94)#94
      + 135 x(95)#95 + 875 x(96)#96 + 767 x(97)#97 + 927 x(98)#98 + 46 x(99)#99
      <= 13635
 c3:  353 x(0)#0 + 346 x(1)#1 + 187 x(2)#2 + 109 x(3)#3 + 490 x(4)#4
      + 387 x(5)#5 + 578 x(6)#6 + 127 x(7)#7 + 7 x(8)#8 + 221 x(9)#9
      + 305 x(10)#10 + 841 x(11)#11 + 881 x(12)#12 + 183 x(13)#13
      + 647 x(14)#14 + 664 x(15)#15 + 646 x(16)#16 + 532 x(17)#17
      + 757 x(18)#18 + 550 x(19)#19 + 316 x(20)#20 + 243 x(21)#21
      + 810 x(22)#22 + 404 x(23)#23 + 982 x(24)#24 + 877 x(25)#25
      + 312 x(26)#26 + 894 x(27)#27 + 185 x(28)#28 + 122 x(29)#29
      + 824 x(30)#30 + 770 x(31)#31 + 182 x(32)#32 + 674 x(33)#33
      + 614 x(34)#34 + 431 x(35)#35 + 429 x(36)#36 + 268 x(37)#37 + 84 x(38)#38
      + 52 x(39)#39 + 510 x(40)#40 + 392 x(41)#41 + 664 x(42)#42 + 215 x(43)#43
      + 175 x(44)#44 + 726 x(45)#45 + 85 x(46)#46 + 650 x(47)#47 + 428 x(48)#48
      + 819 x(49)#49 + 570 x(50)#50 + 917 x(51)#51 + 970 x(52)#52
      + 831 x(53)#53 + 245 x(54)#54 + 983 x(55)#55 + 658 x(56)#56
      + 703 x(57)#57 + 445 x(58)#58 + 690 x(59)#59 + 157 x(60)#60
      + 490 x(61)#61 + 713 x(62)#62 + 465 x(63)#63 + 620 x(64)#64
      + 918 x(65)#65 + 52 x(66)#66 + 786 x(67)#67 + 988 x(68)#68 + 297 x(69)#69
      + 166 x(70)#70 + 923 x(71)#71 + 396 x(72)#72 + 831 x(73)#73
      + 193 x(74)#74 + 310 x(75)#75 + 575 x(76)#76 + 702 x(77)#77
      + 560 x(78)#78 + 452 x(79)#79 + 887 x(80)#80 + 194 x(81)#81 + 87 x(82)#82
      + 643 x(83)#83 + 735 x(84)#84 + 546 x(85)#85 + 666 x(86)#86
      + 943 x(87)#87 + 279 x(88)#88 + 327 x(89)#89 + 263 x(90)#90
      + 537 x(91)#91 + 62 x(92)#92 + 272 x(93)#93 + 635 x(94)#94 + 371 x(95)#95
      + 473 x(96)#96 + 583 x(97)#97 + 358 x(98)#98 + 511 x(99)#99 <= 12482
 c4:  110 x(0)#0 + 33 x(1)#1 + 870 x(2)#2 + 970 x(3)#3 + 735 x(4)#4
      + 871 x(5)#5 + 507 x(6)#6 + 52 x(7)#7 + 735 x(8)#8 + 711 x(9)#9
      + 631 x(10)#10 + 332 x(11)#11 + 326 x(12)#12 + 634 x(13)#13
      + 492 x(14)#14 + 358 x(15)#15 + 556 x(16)#16 + 532 x(17)#17
      + 259 x(18)#18 + 852 x(19)#19 + 191 x(20)#20 + 478 x(21)#21
      + 400 x(22)#22 + 813 x(23)#23 + 708 x(24)#24 + 731 x(25)#25
      + 742 x(26)#26 + 240 x(27)#27 + 544 x(28)#28 + 188 x(29)#29
      + 348 x(30)#30 + 302 x(31)#31 + 276 x(32)#32 + 204 x(33)#33
      + 356 x(34)#34 + 634 x(35)#35 + 753 x(36)#36 + 634 x(37)#37
      + 488 x(38)#38 + 266 x(39)#39 + 153 x(40)#40 + 218 x(41)#41
      + 579 x(42)#42 + 228 x(43)#43 + 737 x(44)#44 + 203 x(45)#45
      + 768 x(46)#46 + 287 x(47)#47 + 752 x(48)#48 + 102 x(49)#49
      + 622 x(50)#50 + 558 x(51)#51 + 265 x(52)#52 + 435 x(53)#53
      + 982 x(54)#54 + 484 x(55)#55 + 512 x(56)#56 + 68 x(57)#57 + 66 x(58)#58
      + 31 x(59)#59 + 550 x(60)#60 + 270 x(61)#61 + 637 x(62)#62 + 447 x(63)#63
      + 572 x(64)#64 + 706 x(65)#65 + 666 x(66)#66 + 100 x(67)#67
      + 129 x(68)#68 + 792 x(69)#69 + 510 x(70)#70 + 833 x(71)#71
      + 860 x(72)#72 + 622 x(73)#73 + 956 x(74)#74 + 122 x(75)#75
      + 336 x(76)#76 + 212 x(77)#77 + 397 x(78)#78 + 14 x(79)#79 + 411 x(80)#80
      + 968 x(81)#81 + 772 x(82)#82 + 812 x(83)#83 + 757 x(84)#84
      + 263 x(85)#85 + 402 x(86)#86 + 879 x(87)#87 + 656 x(88)#88
      + 114 x(89)#89 + 54 x(90)#90 + 682 x(91)#91 + 132 x(92)#92 + 220 x(93)#93
      + 570 x(94)#94 + 290 x(95)#95 + 624 x(96)#96 + 837 x(97)#97
      + 486 x(98)#98 + 758 x(99)#99 <= 12083
 c5:  463 x(0)#0 + 800 x(1)#1 + 981 x(2)#2 + 527 x(3)#3 + 496 x(4)#4
      + 260 x(5)#5 + 802 x(6)#6 + 671 x(7)#7 + 28 x(8)#8 + 61 x(9)#9
      + 584 x(10)#10 + 715 x(11)#11 + 461 x(12)#12 + 776 x(13)#13 + 68 x(14)#14
      + 648 x(15)#15 + 147 x(16)#16 + 809 x(17)#17 + 547 x(18)#18
      + 919 x(19)#19 + 702 x(20)#20 + 173 x(21)#21 + 267 x(22)#22
      + 104 x(23)#23 + 459 x(24)#24 + 910 x(25)#25 + 523 x(26)#26
      + 839 x(27)#27 + 895 x(28)#28 + 826 x(29)#29 + 849 x(30)#30
      + 745 x(31)#31 + 116 x(32)#32 + 666 x(33)#33 + 271 x(34)#34
      + 413 x(35)#35 + 774 x(36)#36 + 331 x(37)#37 + 964 x(38)#38 + 43 x(39)#39
      + 100 x(40)#40 + 631 x(41)#41 + 876 x(42)#42 + 926 x(43)#43
      + 135 x(44)#44 + 809 x(45)#45 + 751 x(46)#46 + 304 x(47)#47
      + 372 x(48)#48 + 474 x(49)#49 + 338 x(50)#50 + 882 x(51)#51
      + 513 x(52)#52 + 646 x(53)#53 + 376 x(54)#54 + 184 x(55)#55
      + 314 x(56)#56 + 533 x(57)#57 + 599 x(58)#58 + 158 x(59)#59
      + 921 x(60)#60 + 771 x(61)#61 + 738 x(62)#62 + 173 x(63)#63
      + 598 x(64)#64 + 647 x(65)#65 + 546 x(66)#66 + 219 x(67)#67
      + 708 x(68)#68 + 972 x(69)#69 + 475 x(70)#70 + 614 x(71)#71
      + 136 x(72)#72 + 889 x(73)#73 + 471 x(74)#74 + 775 x(75)#75
      + 271 x(76)#76 + 816 x(77)#77 + 709 x(78)#78 + 998 x(79)#79
      + 750 x(80)#80 + 673 x(81)#81 + 887 x(82)#82 + 409 x(83)#83
      + 257 x(84)#84 + 172 x(85)#85 + 471 x(86)#86 + 556 x(87)#87
      + 705 x(88)#88 + 297 x(89)#89 + 703 x(90)#90 + 975 x(91)#91
      + 310 x(92)#92 + 8 x(93)#93 + 946 x(94)#94 + 362 x(95)#95 + 343 x(96)#96
      + 855 x(97)#97 + 238 x(98)#98 + 497 x(99)#99 <= 13604
 c6:  620 x(0)#0 + 22 x(1)#1 + 943 x(2)#2 + 736 x(3)#3 + 104 x(4)#4
      + 588 x(5)#5 + 906 x(6)#6 + 517 x(7)#7 + 247 x(8)#8 + 880 x(9)#9
      + 710 x(10)#10 + 920 x(11)#11 + 131 x(12)#12 + 143 x(13)#13
      + 410 x(14)#14 + 964 x(15)#15 + 175 x(16)#16 + 720 x(17)#17
      + 518 x(18)#18 + 58 x(19)#19 + 328 x(20)#20 + 729 x(21)#21 + 467 x(22)#22
      + 770 x(23)#23 + 974 x(24)#24 + 735 x(25)#25 + 217 x(26)#26
      + 608 x(27)#27 + 774 x(28)#28 + 880 x(29)#29 + 741 x(30)#30
      + 159 x(31)#31 + 669 x(32)#32 + 185 x(33)#33 + 927 x(34)#34
      + 737 x(35)#35 + 660 x(36)#36 + 727 x(37)#37 + 444 x(38)#38
      + 234 x(39)#39 + 278 x(40)#40 + 86 x(41)#41 + 169 x(42)#42 + 240 x(43)#43
      + 514 x(44)#44 + 867 x(45)#45 + 314 x(46)#46 + 139 x(47)#47
      + 345 x(48)#48 + 497 x(49)#49 + 829 x(50)#50 + 508 x(51)#51
      + 335 x(52)#52 + 837 x(53)#53 + 786 x(54)#54 + 990 x(55)#55
      + 898 x(56)#56 + 555 x(57)#57 + 103 x(58)#58 + 719 x(59)#59 + 3 x(60)#60
      + 868 x(61)#61 + 13 x(62)#62 + 941 x(63)#63 + 855 x(64)#64 + 334 x(65)#65
      + 564 x(66)#66 + 689 x(67)#67 + 452 x(68)#68 + 394 x(69)#69
      + 615 x(70)#70 + 597 x(71)#71 + 116 x(72)#72 + 852 x(73)#73
      + 615 x(74)#74 + 636 x(75)#75 + 588 x(76)#76 + 917 x(77)#77 + 40 x(78)#78
      + 118 x(79)#79 + 153 x(80)#80 + 576 x(81)#81 + 902 x(82)#82
      + 696 x(83)#83 + 335 x(84)#84 + 254 x(85)#85 + 285 x(86)#86 + 69 x(87)#87
      + 672 x(88)#88 + 537 x(89)#89 + 107 x(90)#90 + 943 x(91)#91
      + 831 x(92)#92 + 283 x(93)#93 + 207 x(94)#94 + 475 x(95)#95
      + 946 x(96)#96 + 277 x(97)#97 + 638 x(98)#98 + 872 x(99)#99 <= 13138
 c7:  281 x(0)#0 + 462 x(1)#1 + 441 x(2)#2 + 173 x(3)#3 + 889 x(4)#4
      + 66 x(5)#5 + 687 x(6)#6 + 693 x(7)#7 + 263 x(8)#8 + 846 x(9)#9
      + 756 x(10)#10 + 677 x(11)#11 + 54 x(12)#12 + 732 x(13)#13 + 575 x(14)#14
      + 927 x(15)#15 + 86 x(16)#16 + 91 x(17)#17 + 924 x(18)#18 + 405 x(19)#19
      + 658 x(20)#20 + 620 x(21)#21 + 846 x(22)#22 + 39 x(23)#23 + 976 x(24)#24
      + 836 x(25)#25 + 42 x(26)#26 + 217 x(27)#27 + 87 x(28)#28 + 220 x(29)#29
      + 580 x(30)#30 + 309 x(31)#31 + 402 x(32)#32 + 283 x(33)#33
      + 210 x(34)#34 + 588 x(35)#35 + 494 x(36)#36 + 14 x(37)#37 + 979 x(38)#38
      + 276 x(39)#39 + 605 x(40)#40 + 61 x(41)#41 + 429 x(42)#42 + 719 x(43)#43
      + 344 x(44)#44 + 605 x(45)#45 + 104 x(46)#46 + 177 x(47)#47
      + 110 x(48)#48 + 13 x(49)#49 + 86 x(50)#50 + 384 x(51)#51 + 55 x(52)#52
      + 905 x(53)#53 + 280 x(54)#54 + 441 x(55)#55 + 384 x(56)#56
      + 792 x(57)#57 + 967 x(58)#58 + 215 x(59)#59 + 956 x(60)#60
      + 542 x(61)#61 + 703 x(62)#62 + 234 x(63)#63 + 527 x(64)#64
      + 832 x(65)#65 + 244 x(66)#66 + 592 x(67)#67 + 666 x(68)#68
      + 387 x(69)#69 + 889 x(70)#70 + 455 x(71)#71 + 668 x(72)#72
      + 219 x(73)#73 + 524 x(74)#74 + 974 x(75)#75 + 855 x(76)#76
      + 308 x(77)#77 + 91 x(78)#78 + 166 x(79)#79 + 310 x(80)#80 + 235 x(81)#81
      + 725 x(82)#82 + 356 x(83)#83 + 136 x(84)#84 + 434 x(85)#85
      + 784 x(86)#86 + 92 x(87)#87 + 222 x(88)#88 + 733 x(89)#89 + 694 x(90)#90
      + 412 x(91)#91 + 75 x(92)#92 + 784 x(93)#93 + 431 x(94)#94 + 854 x(95)#95
      + 56 x(96)#96 + 565 x(97)#97 + 821 x(98)#98 + 299 x(99)#99 <= 11558
 c8:  749 x(0)#0 + 807 x(1)#1 + x(2)#2 + 815 x(3)#3 + 198 x(4)#4 + 527 x(5)#5
      + 233 x(6)#6 + 529 x(7)#7 + 260 x(8)#8 + 817 x(9)#9 + 318 x(10)#10
      + 127 x(11)#11 + 47 x(12)#12 + 221 x(13)#13 + 518 x(14)#14 + 427 x(15)#15
      + 11 x(16)#16 + 415 x(17)#17 + 151 x(18)#18 + 679 x(19)#19 + 274 x(20)#20
      + 494 x(21)#21 + 199 x(22)#22 + 810 x(23)#23 + 267 x(24)#24
      + 892 x(25)#25 + 603 x(26)#26 + 352 x(27)#27 + 77 x(28)#28 + 259 x(29)#29
      + 21 x(30)#30 + 107 x(31)#31 + 319 x(32)#32 + 530 x(33)#33 + 244 x(34)#34
      + 844 x(35)#35 + 91 x(36)#36 + 441 x(37)#37 + 547 x(38)#38 + 831 x(39)#39
      + 301 x(40)#40 + 43 x(41)#41 + 146 x(42)#42 + 730 x(43)#43 + 671 x(44)#44
      + 292 x(45)#45 + 876 x(46)#46 + 131 x(47)#47 + 98 x(48)#48 + 687 x(49)#49
      + 981 x(50)#50 + 332 x(51)#51 + 84 x(52)#52 + 457 x(53)#53 + 417 x(54)#54
      + 1000 x(55)#55 + 660 x(56)#56 + 746 x(57)#57 + 636 x(58)#58
      + 194 x(59)#59 + 903 x(60)#60 + 937 x(61)#61 + 422 x(62)#62
      + 617 x(63)#63 + 632 x(64)#64 + 516 x(65)#65 + 731 x(66)#66 + 78 x(67)#67
      + 233 x(68)#68 + 42 x(69)#69 + 187 x(70)#70 + 922 x(71)#71 + 28 x(72)#72
      + 834 x(73)#73 + 350 x(74)#74 + 623 x(75)#75 + 688 x(76)#76
      + 479 x(77)#77 + 541 x(78)#78 + 525 x(79)#79 + 116 x(80)#80 + 26 x(81)#81
      + 825 x(82)#82 + 689 x(83)#83 + 884 x(84)#84 + 558 x(85)#85
      + 389 x(86)#86 + 5 x(87)#87 + 759 x(88)#88 + 625 x(89)#89 + 666 x(90)#90
      + 978 x(91)#91 + 765 x(92)#92 + 479 x(93)#93 + 326 x(94)#94
      + 950 x(95)#95 + 408 x(96)#96 + 358 x(97)#97 + 379 x(98)#98
      + 493 x(99)#99 <= 11625
 c9:  202 x(0)#0 + 122 x(1)#1 + 137 x(2)#2 + 432 x(3)#3 + 96 x(4)#4
      + 902 x(5)#5 + 355 x(6)#6 + 432 x(7)#7 + 289 x(8)#8 + 439 x(9)#9
      + 218 x(10)#10 + 98 x(11)#11 + 857 x(12)#12 + 609 x(13)#13 + 812 x(14)#14
      + 832 x(15)#15 + 59 x(16)#16 + 749 x(17)#17 + 810 x(18)#18 + 602 x(19)#19
      + 834 x(20)#20 + 977 x(21)#21 + 636 x(22)#22 + 585 x(23)#23
      + 583 x(24)#24 + 246 x(25)#25 + 605 x(26)#26 + 888 x(27)#27
      + 512 x(28)#28 + 352 x(29)#29 + 831 x(30)#30 + 41 x(31)#31 + 492 x(32)#32
      + 792 x(33)#33 + 644 x(34)#34 + 891 x(35)#35 + 697 x(36)#36
      + 665 x(37)#37 + 929 x(38)#38 + 60 x(39)#39 + 658 x(40)#40 + 540 x(41)#41
      + 107 x(42)#42 + 392 x(43)#43 + 721 x(44)#44 + 315 x(45)#45
      + 254 x(46)#46 + 815 x(47)#47 + 752 x(48)#48 + 536 x(49)#49
      + 714 x(50)#50 + 464 x(51)#51 + 999 x(52)#52 + 651 x(53)#53
      + 140 x(54)#54 + 640 x(55)#55 + 501 x(56)#56 + 150 x(57)#57
      + 325 x(58)#58 + 736 x(59)#59 + 111 x(60)#60 + 889 x(61)#61
      + 533 x(62)#62 + 417 x(63)#63 + 825 x(64)#64 + 948 x(65)#65
      + 221 x(66)#66 + 113 x(67)#67 + 96 x(68)#68 + 936 x(69)#69 + 719 x(70)#70
      + 547 x(71)#71 + 131 x(72)#72 + 236 x(73)#73 + 439 x(74)#74
      + 544 x(75)#75 + 645 x(76)#76 + 889 x(77)#77 + 806 x(78)#78
      + 975 x(79)#79 + 491 x(80)#80 + 972 x(81)#81 + 90 x(82)#82 + 389 x(83)#83
      + 205 x(84)#84 + 430 x(85)#85 + 183 x(86)#86 + 205 x(87)#87
      + 583 x(88)#88 + 422 x(89)#89 + 116 x(90)#90 + 998 x(91)#91
      + 677 x(92)#92 + 833 x(93)#93 + 117 x(94)#94 + 527 x(95)#95
      + 840 x(96)#96 + 39 x(97)#97 + 876 x(98)#98 + 811 x(99)#99 <= 13137
 c10: 395 x(0)#0 + 933 x(1)#1 + 327 x(2)#2 + 981 x(3)#3 + 500 x(4)#4
      + 233 x(5)#5 + 175 x(6)#6 + 586 x(7)#7 + 403 x(8)#8 + 10 x(9)#9
      + 773 x(10)#10 + 320 x(11)#11 + 796 x(12)#12 + 131 x(13)#13
      + 197 x(14)#14 + 2 x(15)#15 + 172 x(16)#16 + 499 x(17)#17 + 352 x(18)#18
      + 553 x(19)#19 + 350 x(20)#20 + 774 x(21)#21 + 571 x(22)#22
      + 698 x(23)#23 + 986 x(24)#24 + 449 x(25)#25 + 561 x(26)#26
      + 786 x(27)#27 + 402 x(28)#28 + 528 x(29)#29 + 881 x(30)#30 + 57 x(31)#31
      + 236 x(32)#32 + 576 x(33)#33 + 391 x(34)#34 + 889 x(35)#35 + 14 x(36)#36
      + 323 x(37)#37 + 843 x(38)#38 + 606 x(39)#39 + 309 x(40)#40
      + 526 x(41)#41 + 339 x(42)#42 + 370 x(43)#43 + 108 x(44)#44
      + 637 x(45)#45 + 321 x(46)#46 + 752 x(47)#47 + 997 x(48)#48
      + 209 x(49)#49 + 181 x(50)#50 + 4 x(51)#51 + 8 x(52)#52 + 543 x(53)#53
      + 545 x(54)#54 + 524 x(55)#55 + 959 x(56)#56 + 168 x(57)#57
      + 255 x(58)#58 + 281 x(59)#59 + 61 x(60)#60 + 200 x(61)#61 + 3 x(62)#62
      + 212 x(63)#63 + 634 x(64)#64 + 415 x(65)#65 + 503 x(66)#66
      + 545 x(67)#67 + 608 x(68)#68 + 313 x(69)#69 + 930 x(70)#70
      + 820 x(71)#71 + 282 x(72)#72 + 686 x(73)#73 + 336 x(74)#74 + 86 x(75)#75
      + 321 x(76)#76 + 896 x(77)#77 + 247 x(78)#78 + 749 x(79)#79
      + 310 x(80)#80 + 849 x(81)#81 + 551 x(82)#82 + 550 x(83)#83
      + 991 x(84)#84 + 8 x(85)#85 + 696 x(86)#86 + 452 x(87)#87 + 746 x(88)#88
      + 55 x(89)#89 + 704 x(90)#90 + 614 x(91)#91 + 523 x(92)#92 + 86 x(93)#93
      + 43 x(94)#94 + 66 x(95)#95 + 605 x(96)#96 + 173 x(97)#97 + 600 x(98)#98
      + 195 x(99)#99 <= 11240
Bounds
 0 <= x(0)#0 <= 1
 0 <= x(1)#1 <= 1
 0 <= x(2)#2 <= 1
 0 <= x(3)#3 <= 1
 0 <= x(4)#4 <= 1
 0 <= x(5)#5 <= 1
 0 <= x(6)#6 <= 1
 0 <= x(7)#7 <= 1
 0 <= x(8)#8 <= 1
 0 <= x(9)#9 <= 1
 0 <= x(10)#10 <= 1
 0 <= x(11)#11 <= 1
 0 <= x(12)#12 <= 1
 0 <= x(13)#13 <= 1
 0 <= x(14)#14 <= 1
 0 <= x(15)#15 <= 1
 0 <= x(16)#16 <= 1
 0 <= x(17)#17 <= 1
 0 <= x(18)#18 <= 1
 0 <= x(19)#19 <= 1
 0 <= x(20)#20 <= 1
 0 <= x(21)#21 <= 1
 0 <= x(22)#22 <= 1
 0 <= x(23)#23 <= 1
 0 <= x(24)#24 <= 1
 0 <= x(25)#25 <= 1
 0 <= x(26)#26 <= 1
 0 <= x(27)#27 <= 1
 0 <= x(28)#28 <= 1
 0 <= x(29)#29 <= 1
 0 <= x(30)#30 <= 1
 0 <= x(31)#31 <= 1
 0 <= x(32)#32 <= 1
 0 <= x(33)#33 <= 1
 0 <= x(34)#34 <= 1
 0 <= x(35)#35 <= 1
 0 <= x(36)#36 <= 1
 0 <= x(37)#37 <= 1
 0 <= x(38)#38 <= 1
 0 <= x(39)#39 <= 1
 0 <= x(40)#40 <= 1
 0 <= x(41)#41 <= 1
 0 <= x(42)#42 <= 1
 0 <= x(43)#43 <= 1
 0 <= x(44)#44 <= 1
 0 <= x(45)#45 <= 1
 0 <= x(46)#46 <= 1
 0 <= x(47)#47 <= 1
 0 <= x(48)#48 <= 1
 0 <= x(49)#49 <= 1
 0 <= x(50)#50 <= 1
 0 <= x(51)#51 <= 1
 0 <= x(52)#52 <= 1
 0 <= x(53)#53 <= 1
 0 <= x(54)#54 <= 1
 0 <= x(55)#55 <= 1
 0 <= x(56)#56 <= 1
 0 <= x(57)#57 <= 1
 0 <= x(58)#58 <= 1
 0 <= x(59)#59 <= 1
 0 <= x(60)#60 <= 1
 0 <= x(61)#61 <= 1
 0 <= x(62)#62 <= 1
 0 <= x(63)#63 <= 1
 0 <= x(64)#64 <= 1
 0 <= x(65)#65 <= 1
 0 <= x(66)#66 <= 1
 0 <= x(67)#67 <= 1
 0 <= x(68)#68 <= 1
 0 <= x(69)#69 <= 1
 0 <= x(70)#70 <= 1
 0 <= x(71)#71 <= 1
 0 <= x(72)#72 <= 1
 0 <= x(73)#73 <= 1
 0 <= x(74)#74 <= 1
 0 <= x(75)#75 <= 1
 0 <= x(76)#76 <= 1
 0 <= x(77)#77 <= 1
 0 <= x(78)#78 <= 1
 0 <= x(79)#79 <= 1
 0 <= x(80)#80 <= 1
 0 <= x(81)#81 <= 1
 0 <= x(82)#82 <= 1
 0 <= x(83)#83 <= 1
 0 <= x(84)#84 <= 1
 0 <= x(85)#85 <= 1
 0 <= x(86)#86 <= 1
 0 <= x(87)#87 <= 1
 0 <= x(88)#88 <= 1
 0 <= x(89)#89 <= 1
 0 <= x(90)#90 <= 1
 0 <= x(91)#91 <= 1
 0 <= x(92)#92 <= 1
 0 <= x(93)#93 <= 1
 0 <= x(94)#94 <= 1
 0 <= x(95)#95 <= 1
 0 <= x(96)#96 <= 1
 0 <= x(97)#97 <= 1
 0 <= x(98)#98 <= 1
 0 <= x(99)#99 <= 1
Generals
 x(0)#0  x(1)#1  x(2)#2  x(3)#3  x(4)#4  x(5)#5  x(6)#6  x(7)#7  x(8)#8 
 x(9)#9  x(10)#10  x(11)#11  x(12)#12  x(13)#13  x(14)#14  x(15)#15  x(16)#16 
 x(17)#17  x(18)#18  x(19)#19  x(20)#20  x(21)#21  x(22)#22  x(23)#23 
 x(24)#24  x(25)#25  x(26)#26  x(27)#27  x(28)#28  x(29)#29  x(30)#30 
 x(31)#31  x(32)#32  x(33)#33  x(34)#34  x(35)#35  x(36)#36  x(37)#37 
 x(38)#38  x(39)#39  x(40)#40  x(41)#41  x(42)#42  x(43)#43  x(44)#44 
 x(45)#45  x(46)#46  x(47)#47  x(48)#48  x(49)#49  x(50)#50  x(51)#51 
 x(52)#52  x(53)#53  x(54)#54  x(55)#55  x(56)#56  x(57)#57  x(58)#58 
 x(59)#59  x(60)#60  x(61)#61  x(62)#62  x(63)#63  x(64)#64  x(65)#65 
 x(66)#66  x(67)#67  x(68)#68  x(69)#69  x(70)#70  x(71)#71  x(72)#72 
 x(73)#73  x(74)#74  x(75)#75  x(76)#76  x(77)#77  x(78)#78  x(79)#79 
 x(80)#80  x(81)#81  x(82)#82  x(83)#83  x(84)#84  x(85)#85  x(86)#86 
 x(87)#87  x(88)#88  x(89)#89  x(90)#90  x(91)#91  x(92)#92  x(93)#93 
 x(94)#94  x(95)#95  x(96)#96  x(97)#97  x(98)#98  x(99)#99 
End
